c WARNING: for repeatability, setting FPU to use double precision
d VARIABLES            61300        
d CONSTRAINTS          261893       
c ============================[ Problem Statistics ]=============================
c |                                                                             |
c |  Number of variables:         61300                                         |
c |  Number of clauses:          261893                                         |
c |  Parse time:                   0.03 s                                       |
c |                                                                             |
c ============================[ Search Statistics ]==============================
c | Conflicts |          ORIGINAL         |          LEARNT          | Progress |
c |           |    Vars  Clauses Literals |    Limit  Clauses Lit/Cl |          |
c ===============================================================================
c |       100 |   49107   227209   552974 |    83309      100     41 | 19.891 % |
c |       250 |   49107   227209   552974 |    91640      250     29 | 19.891 % |
c |       475 |   49107   227209   552974 |   100805      475     40 | 19.891 % |
c |       812 |   49107   227209   552974 |   110885      812     60 | 19.891 % |
c |      1318 |   49107   227209   552974 |   121974     1318     79 | 19.891 % |
c |      2077 |   49107   227209   552974 |   134171     2077     85 | 19.891 % |
c |      3216 |   49107   227209   552974 |   147588     3216     95 | 19.891 % |
c |      4924 |   49107   227209   552974 |   162347     4924     97 | 19.891 % |
c |      7486 |   49107   227209   552974 |   178582     7486    115 | 19.891 % |
c |     11330 |   49107   227209   552974 |   196440    11330    112 | 19.891 % |
c |     17096 |   49107   227209   552974 |   216084    17096    119 | 19.891 % |
c |     25745 |   49107   227209   552974 |   237693    25745    120 | 19.891 % |
c |     38719 |   49107   227209   552974 |   261462    38719    124 | 19.891 % |
c |     58180 |   49107   227209   552974 |   287608    58180    123 | 19.891 % |
c |     87372 |   49107   227209   552974 |   316369    87372    114 | 19.891 % |
c |    131161 |   49107   227209   552974 |   348006   131161    107 | 19.891 % |
c |    196845 |   49107   227209   552974 |   382807   196845    107 | 19.891 % |
c |    295371 |   49107   227209   552974 |   421087   295371    104 | 19.891 % |
c |    443160 |   49107   227209   552974 |   463196    33771     92 | 19.891 % |
c |    664843 |   49107   227209   552974 |   509516   255454     94 | 19.891 % |
c |    997368 |   49107   227209   552974 |   560467    92189     84 | 19.891 % |
c |   1496156 |   49107   227209   552974 |   616514    50207     68 | 19.891 % |
c |   2244338 |   49085   227091   552693 |   678166   191538     74 | 19.927 % |
c ===============================================================================
c restarts              : 5245
c conflicts             : 3015363        (1686 /sec)
c decisions             : 4990319        (0.00 % random) (2791 /sec)
c propagations          : 3323157137     (1858519 /sec)
c conflict literals     : 282913258      (60.63 % deleted)
d RESTARTS             5245
d FAILURES             3015363      
d NODES                4990319      
d BACKTRACKS           4990319      
d PROPAGATIONS         3323157137   
d NOGOODSIZE           93.82 
d MEMORY               481.00 
d TIME                 1788.07 

s UNKNOWN
